\Problem name: compact

Minimize
OBJROW: C
Subject To
ord(0,1):  - x(0,1) + x(0,2) >= 7
ord(0,2):  x(0,0) - x(0,2) >= 7
ord(1,1):  x(1,0) - x(1,1) >= 4
ord(1,2):  - x(1,0) + x(1,2) >= 3
ord(2,1):  - x(2,1) + x(2,2) >= 7
ord(2,2):  x(2,0) - x(2,2) >= 6
triangle2(0,1,0):  y(0,1,0) + y(1,0,0) = 1
triangle2(0,1,1):  y(0,1,1) + y(1,0,1) = 1
triangle2(0,1,2):  y(0,1,2) + y(1,0,2) = 1
triangle2(0,2,0):  y(0,2,0) + y(2,0,0) = 1
triangle2(0,2,1):  y(0,2,1) + y(2,0,1) = 1
triangle2(0,2,2):  y(0,2,2) + y(2,0,2) = 1
triangle2(1,2,0):  y(1,2,0) + y(2,1,0) = 1
triangle2(1,2,1):  y(1,2,1) + y(2,1,1) = 1
triangle2(1,2,2):  y(1,2,2) + y(2,1,2) = 1
MCLinV(0,1,0):  - x(0,0) + v(0,1,0)p - v(0,1,0)n + x(1,0) = -3
MCLinV(1,0,0):  x(0,0) + v(1,0,0)p - v(1,0,0)n - x(1,0) = -1
MCLin1(0,1,0):  u(0,1,0)p - u(0,1,0)n >= 0
MCLin2(0,1,0):  23 y(1,0,0) + u(0,1,0)p - u(0,1,0)n >= 0
MCLin3(0,1,0):  -36 y(1,0,0) - v(0,1,0)p + v(0,1,0)n + u(0,1,0)p - u(0,1,0)n >= -36
MCLin4(0,1,0):  -36 y(1,0,0) + u(0,1,0)p - u(0,1,0)n <= 0
MCLin5(0,1,0):  23 y(1,0,0) - v(0,1,0)p + v(0,1,0)n + u(0,1,0)p - u(0,1,0)n <= 23
MCLin6(1,0,0):  u(1,0,0)p - u(1,0,0)n >= 0
MCLin7(1,0,0):  40 y(0,1,0) + u(1,0,0)p - u(1,0,0)n >= 0
MCLin8(1,0,0):  -19 y(0,1,0) - v(1,0,0)p + v(1,0,0)n + u(1,0,0)p - u(1,0,0)n >= -19
MCLin9(1,0,0):  -19 y(0,1,0) + u(1,0,0)p - u(1,0,0)n <= 0
MCLin10(1,0,0):  40 y(0,1,0) - v(1,0,0)p + v(1,0,0)n + u(1,0,0)p - u(1,0,0)n <= 40
MCLinV(0,1,1):  - x(0,1) + v(0,1,1)p - v(0,1,1)n + x(1,1) = -4
MCLinV(1,0,1):  x(0,1) + v(1,0,1)p - v(1,0,1)n - x(1,1) = -7
MCLin1(0,1,1):  u(0,1,1)p - u(0,1,1)n >= 0
MCLin2(0,1,1):  34 y(1,0,1) + u(0,1,1)p - u(0,1,1)n >= 0
MCLin3(0,1,1):  -25 y(1,0,1) - v(0,1,1)p + v(0,1,1)n + u(0,1,1)p - u(0,1,1)n >= -25
MCLin4(0,1,1):  -25 y(1,0,1) + u(0,1,1)p - u(0,1,1)n <= 0
MCLin5(0,1,1):  34 y(1,0,1) - v(0,1,1)p + v(0,1,1)n + u(0,1,1)p - u(0,1,1)n <= 34
MCLin6(1,0,1):  u(1,0,1)p - u(1,0,1)n >= 0
MCLin7(1,0,1):  36 y(0,1,1) + u(1,0,1)p - u(1,0,1)n >= 0
MCLin8(1,0,1):  -23 y(0,1,1) - v(1,0,1)p + v(1,0,1)n + u(1,0,1)p - u(1,0,1)n >= -23
MCLin9(1,0,1):  -23 y(0,1,1) + u(1,0,1)p - u(1,0,1)n <= 0
MCLin10(1,0,1):  36 y(0,1,1) - v(1,0,1)p + v(1,0,1)n + u(1,0,1)p - u(1,0,1)n <= 36
MCLinV(0,1,2):  - x(0,2) + v(0,1,2)p - v(0,1,2)n + x(1,2) = -7
MCLinV(1,0,2):  x(0,2) + v(1,0,2)p - v(1,0,2)n - x(1,2) = -7
MCLin1(0,1,2):  u(0,1,2)p - u(0,1,2)n >= 0
MCLin2(0,1,2):  37 y(1,0,2) + u(0,1,2)p - u(0,1,2)n >= 0
MCLin3(0,1,2):  -22 y(1,0,2) - v(0,1,2)p + v(0,1,2)n + u(0,1,2)p - u(0,1,2)n >= -22
MCLin4(0,1,2):  -22 y(1,0,2) + u(0,1,2)p - u(0,1,2)n <= 0
MCLin5(0,1,2):  37 y(1,0,2) - v(0,1,2)p + v(0,1,2)n + u(0,1,2)p - u(0,1,2)n <= 37
MCLin6(1,0,2):  u(1,0,2)p - u(1,0,2)n >= 0
MCLin7(1,0,2):  36 y(0,1,2) + u(1,0,2)p - u(1,0,2)n >= 0
MCLin8(1,0,2):  -23 y(0,1,2) - v(1,0,2)p + v(1,0,2)n + u(1,0,2)p - u(1,0,2)n >= -23
MCLin9(1,0,2):  -23 y(0,1,2) + u(1,0,2)p - u(1,0,2)n <= 0
MCLin10(1,0,2):  36 y(0,1,2) - v(1,0,2)p + v(1,0,2)n + u(1,0,2)p - u(1,0,2)n <= 36
MCLinV(0,2,0):  - x(0,0) + v(0,2,0)p - v(0,2,0)n + x(2,0) = -2
MCLinV(2,0,0):  x(0,0) + v(2,0,0)p - v(2,0,0)n - x(2,0) = -1
MCLin1(0,2,0):  u(0,2,0)p - u(0,2,0)n >= 0
MCLin2(0,2,0):  30 y(2,0,0) + u(0,2,0)p - u(0,2,0)n >= 0
MCLin3(0,2,0):  -28 y(2,0,0) - v(0,2,0)p + v(0,2,0)n + u(0,2,0)p - u(0,2,0)n >= -28
MCLin4(0,2,0):  -28 y(2,0,0) + u(0,2,0)p - u(0,2,0)n <= 0
MCLin5(0,2,0):  30 y(2,0,0) - v(0,2,0)p + v(0,2,0)n + u(0,2,0)p - u(0,2,0)n <= 30
MCLin6(2,0,0):  u(2,0,0)p - u(2,0,0)n >= 0
MCLin7(2,0,0):  31 y(0,2,0) + u(2,0,0)p - u(2,0,0)n >= 0
MCLin8(2,0,0):  -27 y(0,2,0) - v(2,0,0)p + v(2,0,0)n + u(2,0,0)p - u(2,0,0)n >= -27
MCLin9(2,0,0):  -27 y(0,2,0) + u(2,0,0)p - u(2,0,0)n <= 0
MCLin10(2,0,0):  31 y(0,2,0) - v(2,0,0)p + v(2,0,0)n + u(2,0,0)p - u(2,0,0)n <= 31
MCLinV(0,2,1):  - x(0,1) + v(0,2,1)p - v(0,2,1)n + x(2,1) = -7
MCLinV(2,0,1):  x(0,1) + v(2,0,1)p - v(2,0,1)n - x(2,1) = -7
MCLin1(0,2,1):  u(0,2,1)p - u(0,2,1)n >= 0
MCLin2(0,2,1):  36 y(2,0,1) + u(0,2,1)p - u(0,2,1)n >= 0
MCLin3(0,2,1):  -22 y(2,0,1) - v(0,2,1)p + v(0,2,1)n + u(0,2,1)p - u(0,2,1)n >= -22
MCLin4(0,2,1):  -22 y(2,0,1) + u(0,2,1)p - u(0,2,1)n <= 0
MCLin5(0,2,1):  36 y(2,0,1) - v(0,2,1)p + v(0,2,1)n + u(0,2,1)p - u(0,2,1)n <= 36
MCLin6(2,0,1):  u(2,0,1)p - u(2,0,1)n >= 0
MCLin7(2,0,1):  36 y(0,2,1) + u(2,0,1)p - u(2,0,1)n >= 0
MCLin8(2,0,1):  -22 y(0,2,1) - v(2,0,1)p + v(2,0,1)n + u(2,0,1)p - u(2,0,1)n >= -22
MCLin9(2,0,1):  -22 y(0,2,1) + u(2,0,1)p - u(2,0,1)n <= 0
MCLin10(2,0,1):  36 y(0,2,1) - v(2,0,1)p + v(2,0,1)n + u(2,0,1)p - u(2,0,1)n <= 36
MCLinV(0,2,2):  - x(0,2) + v(0,2,2)p - v(0,2,2)n + x(2,2) = -6
MCLinV(2,0,2):  x(0,2) + v(2,0,2)p - v(2,0,2)n - x(2,2) = -7
MCLin1(0,2,2):  u(0,2,2)p - u(0,2,2)n >= 0
MCLin2(0,2,2):  35 y(2,0,2) + u(0,2,2)p - u(0,2,2)n >= 0
MCLin3(0,2,2):  -23 y(2,0,2) - v(0,2,2)p + v(0,2,2)n + u(0,2,2)p - u(0,2,2)n >= -23
MCLin4(0,2,2):  -23 y(2,0,2) + u(0,2,2)p - u(0,2,2)n <= 0
MCLin5(0,2,2):  35 y(2,0,2) - v(0,2,2)p + v(0,2,2)n + u(0,2,2)p - u(0,2,2)n <= 35
MCLin6(2,0,2):  u(2,0,2)p - u(2,0,2)n >= 0
MCLin7(2,0,2):  36 y(0,2,2) + u(2,0,2)p - u(2,0,2)n >= 0
MCLin8(2,0,2):  -22 y(0,2,2) - v(2,0,2)p + v(2,0,2)n + u(2,0,2)p - u(2,0,2)n >= -22
MCLin9(2,0,2):  -22 y(0,2,2) + u(2,0,2)p - u(2,0,2)n <= 0
MCLin10(2,0,2):  36 y(0,2,2) - v(2,0,2)p + v(2,0,2)n + u(2,0,2)p - u(2,0,2)n <= 36
MCLinV(1,2,0):  - x(1,0) + v(1,2,0)p - v(1,2,0)n + x(2,0) = -2
MCLinV(2,1,0):  x(1,0) + v(2,1,0)p - v(2,1,0)n - x(2,0) = -3
MCLin1(1,2,0):  u(1,2,0)p - u(1,2,0)n >= 0
MCLin2(1,2,0):  40 y(2,1,0) + u(1,2,0)p - u(1,2,0)n >= 0
MCLin3(1,2,0):  -19 y(2,1,0) - v(1,2,0)p + v(1,2,0)n + u(1,2,0)p - u(1,2,0)n >= -19
MCLin4(1,2,0):  -19 y(2,1,0) + u(1,2,0)p - u(1,2,0)n <= 0
MCLin5(1,2,0):  40 y(2,1,0) - v(1,2,0)p + v(1,2,0)n + u(1,2,0)p - u(1,2,0)n <= 40
MCLin6(2,1,0):  u(2,1,0)p - u(2,1,0)n >= 0
MCLin7(2,1,0):  24 y(1,2,0) + u(2,1,0)p - u(2,1,0)n >= 0
MCLin8(2,1,0):  -35 y(1,2,0) - v(2,1,0)p + v(2,1,0)n + u(2,1,0)p - u(2,1,0)n >= -35
MCLin9(2,1,0):  -35 y(1,2,0) + u(2,1,0)p - u(2,1,0)n <= 0
MCLin10(2,1,0):  24 y(1,2,0) - v(2,1,0)p + v(2,1,0)n + u(2,1,0)p - u(2,1,0)n <= 24
MCLinV(1,2,1):  - x(1,1) + v(1,2,1)p - v(1,2,1)n + x(2,1) = -7
MCLinV(2,1,1):  x(1,1) + v(2,1,1)p - v(2,1,1)n - x(2,1) = -4
MCLin1(1,2,1):  u(1,2,1)p - u(1,2,1)n >= 0
MCLin2(1,2,1):  36 y(2,1,1) + u(1,2,1)p - u(1,2,1)n >= 0
MCLin3(1,2,1):  -23 y(2,1,1) - v(1,2,1)p + v(1,2,1)n + u(1,2,1)p - u(1,2,1)n >= -23
MCLin4(1,2,1):  -23 y(2,1,1) + u(1,2,1)p - u(1,2,1)n <= 0
MCLin5(1,2,1):  36 y(2,1,1) - v(1,2,1)p + v(1,2,1)n + u(1,2,1)p - u(1,2,1)n <= 36
MCLin6(2,1,1):  u(2,1,1)p - u(2,1,1)n >= 0
MCLin7(2,1,1):  34 y(1,2,1) + u(2,1,1)p - u(2,1,1)n >= 0
MCLin8(2,1,1):  -25 y(1,2,1) - v(2,1,1)p + v(2,1,1)n + u(2,1,1)p - u(2,1,1)n >= -25
MCLin9(2,1,1):  -25 y(1,2,1) + u(2,1,1)p - u(2,1,1)n <= 0
MCLin10(2,1,1):  34 y(1,2,1) - v(2,1,1)p + v(2,1,1)n + u(2,1,1)p - u(2,1,1)n <= 34
MCLinV(1,2,2):  - x(1,2) + v(1,2,2)p - v(1,2,2)n + x(2,2) = -6
MCLinV(2,1,2):  x(1,2) + v(2,1,2)p - v(2,1,2)n - x(2,2) = -7
MCLin1(1,2,2):  u(1,2,2)p - u(1,2,2)n >= 0
MCLin2(1,2,2):  35 y(2,1,2) + u(1,2,2)p - u(1,2,2)n >= 0
MCLin3(1,2,2):  -24 y(2,1,2) - v(1,2,2)p + v(1,2,2)n + u(1,2,2)p - u(1,2,2)n >= -24
MCLin4(1,2,2):  -24 y(2,1,2) + u(1,2,2)p - u(1,2,2)n <= 0
MCLin5(1,2,2):  35 y(2,1,2) - v(1,2,2)p + v(1,2,2)n + u(1,2,2)p - u(1,2,2)n <= 35
MCLin6(2,1,2):  u(2,1,2)p - u(2,1,2)n >= 0
MCLin7(2,1,2):  37 y(1,2,2) + u(2,1,2)p - u(2,1,2)n >= 0
MCLin8(2,1,2):  -22 y(1,2,2) - v(2,1,2)p + v(2,1,2)n + u(2,1,2)p - u(2,1,2)n >= -22
MCLin9(2,1,2):  -22 y(1,2,2) + u(2,1,2)p - u(2,1,2)n <= 0
MCLin10(2,1,2):  37 y(1,2,2) - v(2,1,2)p + v(2,1,2)n + u(2,1,2)p - u(2,1,2)n <= 37
makespan(0):  C - x(0,0) >= 1
makespan(1):  C - x(1,2) >= 7
makespan(2):  C - x(2,0) >= 2
cut_clique_1(01,1):  x(0,1) + 0.89688 x(1,1) >= 1
cut_clique_1(012,1):  0.96718 x(0,1) + 0.56705 x(1,1) + x(2,1) >= 1
cut_clique_1(02,1):  0.93802 x(0,1) + x(2,1) >= 1
cut_clique_1(12,1):  0.88592 x(1,1) + x(2,1) >= 1
cut_clique_1(01,2):  0.03166 x(0,2) + 0.11003 x(1,2) >= 1
cut_clique_1(02,2):  0.13357 x(0,2) + 0.00769 x(2,2) >= 1
cut_clique_1(12,2):  0.05353 x(1,2) + 0.08931 x(2,2) >= 1
cut_clique_1(012,2):  0.00233 x(0,2) + 0.04535 x(1,2) + 0.06820 x(2,2) >= 1
cut_clique_2(012,1):  0.65831 x(0,1) + 0.26319 x(1,1) + 0.83288 x(2,1) >= 1
cut_clique_2(02,1):  0.77719 x(0,1) + 0.91413 x(2,1) >= 1
cut_clique_2(01,1):  0.87668 x(0,1) + 0.98327 x(1,1) >= 1
cut_clique_2(12,1):  0.94252 x(1,1) + 0.57409 x(2,1) >= 1
cut_clique_2(01,2):  0.08926 x(0,2) + 0.02744 x(1,2) >= 1
cut_clique_2(02,2):  0.04163 x(0,2) + 0.07615 x(2,2) >= 1
cut_clique_3(12,1):  0.86969 x(1,1) + 0.95458 x(2,1) >= 1
cut_clique_3(012,1):  0.01973 x(0,1) + 0.77515 x(1,1) + 0.69488 x(2,1) >= 1
cut_clique_3(01,1):  0.36249 x(0,1) + 0.53995 x(1,1) >= 1
cut_clique_3(02,1):  0.75049 x(0,1) + x(2,1) >= 1
cut_clique_4(02,1):  0.58202 x(0,1) + x(2,1) >= 1
cut_clique_4(012,1):  0.45784 x(0,1) + 0.12190 x(1,1) + 0.95056 x(2,1) >= 1
cut_clique_4(12,1):  0.57340 x(1,1) + x(2,1) >= 1
cut_clique_4(01,1):  0.26086 x(0,1) + 0.38318 x(1,1) >= 1
cut_clique_4(12,2):  0.04016 x(1,2) + 0.07227 x(2,2) >= 1
cut_clique_4(012,2):  0.06614 x(0,2) + 0.03936 x(1,2) + 0.00052 x(2,2) >= 1
cut_clique_4(01,2):  0.06814 x(0,2) + 0.04293 x(1,2) >= 1
cut_clique_4(02,2):  0.04992 x(0,2) + 0.06630 x(2,2) >= 1
cut_clique_5(012,1):  0.01199 x(0,1) + 0.58551 x(1,1) + 0.72766 x(2,1) >= 1
cut_clique_5(12,1):  0.56421 x(1,1) + 0.97585 x(2,1) >= 1
cut_clique_5(01,1):  0.35875 x(0,1) + 0.16399 x(1,1) >= 1
cut_clique_5(02,1):  0.36503 x(0,1) + 0.78403 x(2,1) >= 1
cut_clique_5(02,2):  0.04505 x(0,2) + 0.06502 x(2,2) >= 1
cut_clique_6(12,1):  0.43284 x(1,1) + 0.97229 x(2,1) >= 1
cut_clique_6(01,1):  0.29799 x(0,1) + 0.24632 x(1,1) >= 1
cut_clique_6(012,1):  0.32305 x(0,1) + 0.08311 x(1,1) + 0.16311 x(2,1) >= 1
cut_clique_6(02,1):  0.42741 x(0,1) + 0.32202 x(2,1) >= 1
cut_clique_6(02,2):  0.07116 x(0,2) + 0.03826 x(2,2) >= 1
cut_clique_7(02,1):  0.23650 x(0,1) + 0.42269 x(2,1) >= 1
cut_clique_7(012,1):  0.15526 x(0,1) + 0.15912 x(1,1) + 0.21811 x(2,1) >= 1
cut_clique_7(12,1):  0.34741 x(1,1) + 0.42544 x(2,1) >= 1
cut_clique_7(01,1):  0.33001 x(0,1) + 0.18856 x(1,1) >= 1
cut_clique_7(02,2):  0.05223 x(0,2) + 0.05665 x(2,2) >= 1
cut_clique_7(12,2):  0.05823 x(1,2) + 0.04573 x(2,2) >= 1
cut_clique_8(02,1):  0.27006 x(0,1) + 0.31097 x(2,1) >= 1
cut_clique_8(01,1):  0.26322 x(0,1) + 0.18133 x(1,1) >= 1
cut_clique_8(012,1):  0.16507 x(0,1) + 0.04360 x(1,1) + 0.29290 x(2,1) >= 1
cut_clique_8(12,1):  0.20841 x(1,1) + 0.28483 x(2,1) >= 1
cut_clique_8(12,2):  0.05411 x(1,2) + 0.04993 x(2,2) >= 1
cut_clique_9(012,1):  0.13248 x(0,1) + 0.10837 x(1,1) + 0.17119 x(2,1) >= 1
cut_clique_9(02,1):  0.28011 x(0,1) + 0.26091 x(2,1) >= 1
cut_clique_9(12,2):  0.05316 x(1,2) + 0.04898 x(2,2) >= 1
cut_clique_9(012,2):  0.01170 x(0,2) + 0.05899 x(1,2) + 0.02978 x(2,2) >= 1
cut_clique_9(02,2):  0.06043 x(0,2) + 0.04688 x(2,2) >= 1
cut_clique_10(02,1):  0.28434 x(0,1) + 0.19906 x(2,1) >= 1
cut_clique_10(012,1):  0.07215 x(0,1) + 0.09134 x(1,1) + 0.19573 x(2,1) >= 1
cut_clique_10(12,2):  0.05205 x(1,2) + 0.04808 x(2,2) >= 1
cut_clique_10(012,2):  0.01875 x(0,2) + 0.04559 x(1,2) + 0.03750 x(2,2) >= 1
cut_clique_10(02,2):  0.05341 x(0,2) + 0.05322 x(2,2) >= 1
cut_clique_11(012,1):  0.21509 x(0,1) + 0.01890 x(1,1) + 0.13989 x(2,1) >= 1
cut_clique_11(02,1):  0.22838 x(0,1) + 0.15920 x(2,1) >= 1
cut_clique_11(02,2):  0.04821 x(0,2) + 0.05532 x(2,2) >= 1
cut_clique_11(01,2):  0.04872 x(0,2) + 0.05059 x(1,2) >= 1
cut_clique_12(012,1):  0.08064 x(0,1) + 0.12955 x(1,1) + 0.11765 x(2,1) >= 1
cut_clique_12(02,1):  0.19321 x(0,1) + 0.18688 x(2,1) >= 1
cut_clique_13(02,1):  0.17116 x(0,1) + 0.20202 x(2,1) >= 1
cut_clique_13(012,1):  0.15848 x(0,1) + 0.00977 x(1,1) + 0.20202 x(2,1) >= 1
cut_clique_13(01,2):  0.05335 x(0,2) + 0.04512 x(1,2) >= 1
cut_clique_14(02,1):  0.21835 x(0,1) + 0.15057 x(2,1) >= 1
cut_clique_14(012,1):  0.11146 x(0,1) + 0.09828 x(1,1) + 0.12102 x(2,1) >= 1
cut_clique_14(02,2):  0.05529 x(0,2) + 0.04775 x(2,2) >= 1
cut_clique_15(02,1):  0.17114 x(0,1) + 0.18242 x(2,1) >= 1
cut_clique_15(012,1):  0.18094 x(0,1) + 0.02263 x(1,1) + 0.14843 x(2,1) >= 1
cut_clique_15(02,2):  0.05110 x(0,2) + 0.05084 x(2,2) >= 1
cut_clique_15(012,2):  0.05192 x(0,2) + 0.00148 x(1,2) + 0.04726 x(2,2) >= 1
cut_clique_16(02,1):  0.16793 x(0,1) + 0.17319 x(2,1) >= 1
cut_clique_16(012,1):  0.14049 x(0,1) + 0.01174 x(1,1) + 0.18181 x(2,1) >= 1
cut_clique_17(02,1):  0.15894 x(0,1) + 0.17664 x(2,1) >= 1
cut_clique_17(012,1):  0.12221 x(0,1) + 0.06304 x(1,1) + 0.10950 x(2,1) >= 1
cut_clique_17(02,2):  0.05524 x(0,2) + 0.04492 x(2,2) >= 1
cut_clique_18(012,1):  0.09639 x(0,1) + 0.02602 x(1,1) + 0.17642 x(2,1) >= 1
cut_clique_18(02,1):  0.16431 x(0,1) + 0.14897 x(2,1) >= 1
cut_clique_19(02,1):  0.16170 x(0,1) + 0.14310 x(2,1) >= 1
cut_clique_20(012,1):  0.08489 x(0,1) + 0.08454 x(1,1) + 0.10746 x(2,1) >= 1
cut_clique_20(02,1):  0.15377 x(0,1) + 0.14951 x(2,1) >= 1
cut_clique_21(012,1):  0.14315 x(0,1) + 0.07693 x(1,1) + 0.05695 x(2,1) >= 1
cut_clique_21(02,1):  0.14871 x(0,1) + 0.15318 x(2,1) >= 1
Bounds
 0 <= C <= 44
 14 <= x(0,0) <= 43
 0 <= y(0,1,0) <= 1
 0 <= y(1,0,0) <= 1
 0 <= v(0,1,0)p <= 36
 0 <= v(0,1,0)n <= 23
 0 <= v(1,0,0)p <= 19
 0 <= v(1,0,0)n <= 40
 0 <= u(0,1,0)p <= 440
 0 <= u(0,1,0)n <= 440
 0 <= u(1,0,0)p <= 440
 0 <= u(1,0,0)n <= 440
 0 <= y(0,2,0) <= 1
 0 <= y(2,0,0) <= 1
 0 <= v(0,2,0)p <= 28
 0 <= v(0,2,0)n <= 30
 0 <= v(2,0,0)p <= 27
 0 <= v(2,0,0)n <= 31
 0 <= u(0,2,0)p <= 440
 0 <= u(0,2,0)n <= 440
 0 <= u(2,0,0)p <= 440
 0 <= u(2,0,0)n <= 440
 4 <= x(1,0) <= 34
 0 <= y(1,2,0) <= 1
 0 <= y(2,1,0) <= 1
 0 <= v(1,2,0)p <= 19
 0 <= v(1,2,0)n <= 40
 0 <= v(2,1,0)p <= 35
 0 <= v(2,1,0)n <= 24
 0 <= u(1,2,0)p <= 440
 0 <= u(1,2,0)n <= 440
 0 <= u(2,1,0)p <= 440
 0 <= u(2,1,0)n <= 440
 13 <= x(2,0) <= 42
 0 <= x(0,1) <= 29
 0 <= y(0,1,1) <= 1
 0 <= y(1,0,1) <= 1
 0 <= v(0,1,1)p <= 25
 0 <= v(0,1,1)n <= 34
 0 <= v(1,0,1)p <= 23
 0 <= v(1,0,1)n <= 36
 0 <= u(0,1,1)p <= 440
 0 <= u(0,1,1)n <= 440
 0 <= u(1,0,1)p <= 440
 0 <= u(1,0,1)n <= 440
 0 <= y(0,2,1) <= 1
 0 <= y(2,0,1) <= 1
 0 <= v(0,2,1)p <= 22
 0 <= v(0,2,1)n <= 36
 0 <= v(2,0,1)p <= 22
 0 <= v(2,0,1)n <= 36
 0 <= u(0,2,1)p <= 440
 0 <= u(0,2,1)n <= 440
 0 <= u(2,0,1)p <= 440
 0 <= u(2,0,1)n <= 440
 0 <= x(1,1) <= 30
 0 <= y(1,2,1) <= 1
 0 <= y(2,1,1) <= 1
 0 <= v(1,2,1)p <= 23
 0 <= v(1,2,1)n <= 36
 0 <= v(2,1,1)p <= 25
 0 <= v(2,1,1)n <= 34
 0 <= u(1,2,1)p <= 440
 0 <= u(1,2,1)n <= 440
 0 <= u(2,1,1)p <= 440
 0 <= u(2,1,1)n <= 440
 0 <= x(2,1) <= 29
 7 <= x(0,2) <= 36
 0 <= y(0,1,2) <= 1
 0 <= y(1,0,2) <= 1
 0 <= v(0,1,2)p <= 22
 0 <= v(0,1,2)n <= 37
 0 <= v(1,0,2)p <= 23
 0 <= v(1,0,2)n <= 36
 0 <= u(0,1,2)p <= 440
 0 <= u(0,1,2)n <= 440
 0 <= u(1,0,2)p <= 440
 0 <= u(1,0,2)n <= 440
 0 <= y(0,2,2) <= 1
 0 <= y(2,0,2) <= 1
 0 <= v(0,2,2)p <= 23
 0 <= v(0,2,2)n <= 35
 0 <= v(2,0,2)p <= 22
 0 <= v(2,0,2)n <= 36
 0 <= u(0,2,2)p <= 440
 0 <= u(0,2,2)n <= 440
 0 <= u(2,0,2)p <= 440
 0 <= u(2,0,2)n <= 440
 7 <= x(1,2) <= 37
 0 <= y(1,2,2) <= 1
 0 <= y(2,1,2) <= 1
 0 <= v(1,2,2)p <= 24
 0 <= v(1,2,2)n <= 35
 0 <= v(2,1,2)p <= 22
 0 <= v(2,1,2)n <= 37
 0 <= u(1,2,2)p <= 440
 0 <= u(1,2,2)n <= 440
 0 <= u(2,1,2)p <= 440
 0 <= u(2,1,2)n <= 440
 7 <= x(2,2) <= 36
End
